p cnf 430 1488
-191 -63 0
-191 156 0
-191 -65 0
-191 142 0
-191 58 0
191 63 -156 65 -142 -58 0
-192 -43 0
-192 -167 0
-192 -169 0
-192 -149 0
-192 159 0
192 43 167 169 149 -159 0
-193 28 0
-193 163 0
-193 52 0
-193 100 0
-193 48 0
193 -28 -163 -52 -100 -48 0
-194 143 0
-194 164 0
-194 -27 0
-194 -131 0
-194 -114 0
194 -143 -164 27 131 114 0
-195 -98 0
-195 -62 0
-195 -64 0
-195 13 0
-195 65 0
195 98 62 64 -13 -65 0
191 192 193 194 195 0
-196 121 0
-196 168 0
-196 161 0
-196 -29 0
-196 -95 0
196 -121 -168 -161 29 95 0
-197 -90 0
-197 51 0
-197 -26 0
-197 155 0
-197 -67 0
197 90 -51 26 -155 67 0
-198 -130 0
-198 -69 0
-198 73 0
-198 -7 0
-198 142 0
198 130 69 -73 7 -142 0
-199 -51 0
-199 -78 0
-199 -140 0
-199 -50 0
-199 16 0
199 51 78 140 50 -16 0
-200 -92 0
-200 164 0
-200 -157 0
-200 -39 0
-200 130 0
200 92 -164 157 39 -130 0
196 197 198 199 200 0
-201 -90 0
-201 -175 0
-201 -126 0
-201 44 0
-201 -157 0
201 90 175 126 -44 157 0
-202 54 0
-202 -55 0
-202 159 0
-202 34 0
-202 21 0
202 -54 55 -159 -34 -21 0
-203 83 0
-203 11 0
-203 -77 0
-203 190 0
-203 147 0
203 -83 -11 77 -190 -147 0
-204 110 0
-204 -60 0
-204 -5 0
-204 -18 0
-204 -31 0
204 -110 60 5 18 31 0
-205 -74 0
-205 152 0
-205 -128 0
-205 -176 0
-205 115 0
205 74 -152 128 176 -115 0
201 202 203 204 205 0
-206 182 0
-206 -89 0
-206 95 0
-206 -185 0
-206 -46 0
206 -182 89 -95 185 46 0
-207 58 0
-207 -66 0
-207 158 0
-207 33 0
-207 -70 0
207 -58 66 -158 -33 70 0
-208 -146 0
-208 -79 0
-208 13 0
-208 72 0
-208 -46 0
208 146 79 -13 -72 46 0
-209 -15 0
-209 136 0
-209 67 0
-209 -153 0
-209 -9 0
209 15 -136 -67 153 9 0
-210 -128 0
-210 179 0
-210 -108 0
-210 3 0
-210 91 0
210 128 -179 108 -3 -91 0
206 207 208 209 210 0
-211 47 0
-211 88 0
-211 120 0
-211 -106 0
-211 146 0
211 -47 -88 -120 106 -146 0
-212 149 0
-212 96 0
-212 -40 0
-212 -119 0
-212 -8 0
212 -149 -96 40 119 8 0
-213 190 0
-213 -188 0
-213 87 0
-213 23 0
-213 61 0
213 -190 188 -87 -23 -61 0
-214 167 0
-214 -68 0
-214 171 0
-214 148 0
-214 -170 0
214 -167 68 -171 -148 170 0
-215 41 0
-215 91 0
-215 -49 0
-215 187 0
-215 -117 0
215 -41 -91 49 -187 117 0
211 212 213 214 215 0
-216 -45 0
-216 160 0
-216 29 0
-216 76 0
-216 88 0
216 45 -160 -29 -76 -88 0
-217 58 0
-217 -71 0
-217 -162 0
-217 82 0
-217 -57 0
217 -58 71 162 -82 57 0
-218 -82 0
-218 -70 0
-218 -87 0
-218 142 0
-218 159 0
218 82 70 87 -142 -159 0
-219 164 0
-219 -157 0
-219 111 0
-219 93 0
-219 25 0
219 -164 157 -111 -93 -25 0
-220 162 0
-220 153 0
-220 -190 0
-220 23 0
-220 35 0
220 -162 -153 190 -23 -35 0
216 217 218 219 220 0
-221 -186 0
-221 30 0
-221 106 0
-221 145 0
-221 39 0
221 186 -30 -106 -145 -39 0
-222 -7 0
-222 126 0
-222 -164 0
-222 112 0
-222 12 0
222 7 -126 164 -112 -12 0
-223 73 0
-223 31 0
-223 -89 0
-223 92 0
-223 -33 0
223 -73 -31 89 -92 33 0
-224 171 0
-224 66 0
-224 -41 0
-224 -81 0
-224 113 0
224 -171 -66 41 81 -113 0
-225 -168 0
-225 34 0
-225 -42 0
-225 -131 0
-225 16 0
225 168 -34 42 131 -16 0
221 222 223 224 225 0
-226 126 0
-226 -129 0
-226 -103 0
-226 100 0
-226 -121 0
226 -126 129 103 -100 121 0
-227 -41 0
-227 -18 0
-227 56 0
-227 172 0
-227 178 0
227 41 18 -56 -172 -178 0
-228 25 0
-228 -72 0
-228 159 0
-228 -122 0
-228 9 0
228 -25 72 -159 122 -9 0
-229 163 0
-229 111 0
-229 160 0
-229 118 0
-229 18 0
229 -163 -111 -160 -118 -18 0
-230 42 0
-230 139 0
-230 -163 0
-230 -189 0
-230 -15 0
230 -42 -139 163 189 15 0
226 227 228 229 230 0
-231 -176 0
-231 -90 0
-231 8 0
-231 51 0
-231 82 0
231 176 90 -8 -51 -82 0
-232 -22 0
-232 69 0
-232 61 0
-232 -93 0
-232 111 0
232 22 -69 -61 93 -111 0
-233 -53 0
-233 67 0
-233 -173 0
-233 29 0
-233 -97 0
233 53 -67 173 -29 97 0
-234 -15 0
-234 -46 0
-234 18 0
-234 35 0
-234 -160 0
234 15 46 -18 -35 160 0
-235 98 0
-235 -106 0
-235 -155 0
-235 140 0
-235 -8 0
235 -98 106 155 -140 8 0
231 232 233 234 235 0
-236 81 0
-236 -31 0
-236 65 0
-236 -90 0
-236 42 0
236 -81 31 -65 90 -42 0
-237 40 0
-237 174 0
-237 -24 0
-237 -102 0
-237 -66 0
237 -40 -174 24 102 66 0
-238 6 0
-238 72 0
-238 154 0
-238 -105 0
-238 -189 0
238 -6 -72 -154 105 189 0
-239 -16 0
-239 132 0
-239 25 0
-239 131 0
-239 -59 0
239 16 -132 -25 -131 59 0
-240 50 0
-240 -59 0
-240 113 0
-240 26 0
-240 -55 0
240 -50 59 -113 -26 55 0
236 237 238 239 240 0
-241 168 0
-241 139 0
-241 60 0
-241 109 0
-241 14 0
241 -168 -139 -60 -109 -14 0
-242 -73 0
-242 -94 0
-242 -78 0
-242 184 0
-242 132 0
242 73 94 78 -184 -132 0
-243 107 0
-243 -92 0
-243 -139 0
-243 -152 0
-243 -144 0
243 -107 92 139 152 144 0
-244 -85 0
-244 181 0
-244 8 0
-244 -7 0
-244 81 0
244 85 -181 -8 7 -81 0
-245 91 0
-245 1 0
-245 132 0
-245 -188 0
-245 117 0
245 -91 -1 -132 188 -117 0
241 242 243 244 245 0
-246 4 0
-246 145 0
-246 108 0
-246 75 0
-246 -174 0
246 -4 -145 -108 -75 174 0
-247 -168 0
-247 -13 0
-247 -48 0
-247 -180 0
-247 -131 0
247 168 13 48 180 131 0
-248 145 0
-248 96 0
-248 50 0
-248 -153 0
-248 -46 0
248 -145 -96 -50 153 46 0
-249 97 0
-249 168 0
-249 -114 0
-249 -86 0
-249 -42 0
249 -97 -168 114 86 42 0
-250 150 0
-250 160 0
-250 -126 0
-250 96 0
-250 -42 0
250 -150 -160 126 -96 42 0
246 247 248 249 250 0
-251 104 0
-251 82 0
-251 166 0
-251 -22 0
-251 164 0
251 -104 -82 -166 22 -164 0
-252 -143 0
-252 20 0
-252 -183 0
-252 139 0
-252 -109 0
252 143 -20 183 -139 109 0
-253 -182 0
-253 34 0
-253 -17 0
-253 72 0
-253 -151 0
253 182 -34 17 -72 151 0
-254 137 0
-254 179 0
-254 76 0
-254 -78 0
-254 168 0
254 -137 -179 -76 78 -168 0
-255 -15 0
-255 186 0
-255 -170 0
-255 109 0
-255 4 0
255 15 -186 170 -109 -4 0
251 252 253 254 255 0
-256 -67 0
-256 124 0
-256 -111 0
-256 91 0
-256 -158 0
256 67 -124 111 -91 158 0
-257 21 0
-257 61 0
-257 142 0
-257 91 0
-257 119 0
257 -21 -61 -142 -91 -119 0
-258 -9 0
-258 15 0
-258 -34 0
-258 187 0
-258 4 0
258 9 -15 34 -187 -4 0
-259 -152 0
-259 -102 0
-259 9 0
-259 37 0
-259 -93 0
259 152 102 -9 -37 93 0
-260 42 0
-260 45 0
-260 47 0
-260 30 0
-260 113 0
260 -42 -45 -47 -30 -113 0
256 257 258 259 260 0
-261 -129 0
-261 124 0
-261 -22 0
-261 67 0
-261 -34 0
261 129 -124 22 -67 34 0
-262 -43 0
-262 72 0
-262 177 0
-262 -86 0
-262 -62 0
262 43 -72 -177 86 62 0
-263 185 0
-263 48 0
-263 -30 0
-263 -136 0
-263 184 0
263 -185 -48 30 136 -184 0
-264 125 0
-264 149 0
-264 45 0
-264 26 0
-264 61 0
264 -125 -149 -45 -26 -61 0
-265 137 0
-265 99 0
-265 88 0
-265 130 0
-265 -18 0
265 -137 -99 -88 -130 18 0
261 262 263 264 265 0
-266 -26 0
-266 -173 0
-266 -11 0
-266 -156 0
-266 -90 0
266 26 173 11 156 90 0
-267 -154 0
-267 181 0
-267 152 0
-267 -161 0
-267 -37 0
267 154 -181 -152 161 37 0
-268 -31 0
-268 89 0
-268 -45 0
-268 -14 0
-268 -105 0
268 31 -89 45 14 105 0
-269 -111 0
-269 -98 0
-269 -82 0
-269 -151 0
-269 189 0
269 111 98 82 151 -189 0
-270 -152 0
-270 -46 0
-270 51 0
-270 15 0
-270 119 0
270 152 46 -51 -15 -119 0
266 267 268 269 270 0
-271 -131 0
-271 -65 0
-271 77 0
-271 -12 0
-271 42 0
271 131 65 -77 12 -42 0
-272 -179 0
-272 156 0
-272 -31 0
-272 38 0
-272 -18 0
272 179 -156 31 -38 18 0
-273 -77 0
-273 -39 0
-273 49 0
-273 -96 0
-273 47 0
273 77 39 -49 96 -47 0
-274 -85 0
-274 107 0
-274 -58 0
-274 153 0
-274 8 0
274 85 -107 58 -153 -8 0
-275 66 0
-275 46 0
-275 68 0
-275 156 0
-275 -164 0
275 -66 -46 -68 -156 164 0
271 272 273 274 275 0
-276 135 0
-276 -91 0
-276 -137 0
-276 -29 0
-276 -67 0
276 -135 91 137 29 67 0
-277 146 0
-277 -51 0
-277 -27 0
-277 -173 0
-277 120 0
277 -146 51 27 173 -120 0
-278 117 0
-278 119 0
-278 103 0
-278 31 0
-278 170 0
278 -117 -119 -103 -31 -170 0
-279 -43 0
-279 -58 0
-279 145 0
-279 -24 0
-279 120 0
279 43 58 -145 24 -120 0
-280 41 0
-280 -42 0
-280 172 0
-280 84 0
-280 -126 0
280 -41 42 -172 -84 126 0
276 277 278 279 280 0
-281 -145 0
-281 81 0
-281 -187 0
-281 51 0
-281 -58 0
281 145 -81 187 -51 58 0
-282 136 0
-282 130 0
-282 -43 0
-282 51 0
-282 31 0
282 -136 -130 43 -51 -31 0
-283 -8 0
-283 160 0
-283 20 0
-283 -114 0
-283 -130 0
283 8 -160 -20 114 130 0
-284 120 0
-284 -77 0
-284 -178 0
-284 -32 0
-284 146 0
284 -120 77 178 32 -146 0
-285 104 0
-285 180 0
-285 -39 0
-285 86 0
-285 29 0
285 -104 -180 39 -86 -29 0
281 282 283 284 285 0
-286 -127 0
-286 108 0
-286 -1 0
-286 -102 0
-286 29 0
286 127 -108 1 102 -29 0
-287 47 0
-287 71 0
-287 -162 0
-287 -18 0
-287 131 0
287 -47 -71 162 18 -131 0
-288 -160 0
-288 -166 0
-288 -148 0
-288 -61 0
-288 186 0
288 160 166 148 61 -186 0
-289 -135 0
-289 -150 0
-289 -94 0
-289 95 0
-289 -40 0
289 135 150 94 -95 40 0
-290 -150 0
-290 44 0
-290 -180 0
-290 -67 0
-290 -95 0
290 150 -44 180 67 95 0
286 287 288 289 290 0
-291 125 0
-291 -7 0
-291 -136 0
-291 -57 0
-291 -179 0
291 -125 7 136 57 179 0
-292 -50 0
-292 65 0
-292 76 0
-292 10 0
-292 -20 0
292 50 -65 -76 -10 20 0
-293 179 0
-293 -139 0
-293 -185 0
-293 79 0
-293 50 0
293 -179 139 185 -79 -50 0
-294 100 0
-294 159 0
-294 172 0
-294 -168 0
-294 145 0
294 -100 -159 -172 168 -145 0
-295 -30 0
-295 126 0
-295 -69 0
-295 34 0
-295 -11 0
295 30 -126 69 -34 11 0
291 292 293 294 295 0
-296 -29 0
-296 185 0
-296 111 0
-296 -33 0
-296 -77 0
296 29 -185 -111 33 77 0
-297 91 0
-297 185 0
-297 111 0
-297 77 0
-297 98 0
297 -91 -185 -111 -77 -98 0
-298 -51 0
-298 32 0
-298 -7 0
-298 136 0
-298 -153 0
298 51 -32 7 -136 153 0
-299 182 0
-299 -91 0
-299 60 0
-299 181 0
-299 39 0
299 -182 91 -60 -181 -39 0
-300 -18 0
-300 5 0
-300 -23 0
-300 112 0
-300 -28 0
300 18 -5 23 -112 28 0
296 297 298 299 300 0
-301 -14 0
-301 -157 0
-301 -40 0
-301 85 0
-301 128 0
301 14 157 40 -85 -128 0
-302 85 0
-302 86 0
-302 -67 0
-302 37 0
-302 -185 0
302 -85 -86 67 -37 185 0
-303 -177 0
-303 -128 0
-303 -36 0
-303 -43 0
-303 -109 0
303 177 128 36 43 109 0
-304 -114 0
-304 -149 0
-304 -37 0
-304 -3 0
-304 -56 0
304 114 149 37 3 56 0
-305 -17 0
-305 -97 0
-305 -167 0
-305 70 0
-305 -118 0
305 17 97 167 -70 118 0
301 302 303 304 305 0
-306 103 0
-306 30 0
-306 -147 0
-306 -119 0
-306 68 0
306 -103 -30 147 119 -68 0
-307 16 0
-307 15 0
-307 -175 0
-307 -181 0
-307 -1 0
307 -16 -15 175 181 1 0
-308 -104 0
-308 -55 0
-308 -32 0
-308 -124 0
-308 49 0
308 104 55 32 124 -49 0
-309 -176 0
-309 56 0
-309 -104 0
-309 -35 0
-309 23 0
309 176 -56 104 35 -23 0
-310 183 0
-310 -186 0
-310 -68 0
-310 -81 0
-310 -42 0
310 -183 186 68 81 42 0
306 307 308 309 310 0
-311 -57 0
-311 48 0
-311 -60 0
-311 73 0
-311 -55 0
311 57 -48 60 -73 55 0
-312 -156 0
-312 142 0
-312 -134 0
-312 -165 0
-312 -189 0
312 156 -142 134 165 189 0
-313 -147 0
-313 114 0
-313 -10 0
-313 100 0
-313 -76 0
313 147 -114 10 -100 76 0
-314 -99 0
-314 181 0
-314 47 0
-314 -53 0
-314 -56 0
314 99 -181 -47 53 56 0
-315 -125 0
-315 -170 0
-315 12 0
-315 -108 0
-315 56 0
315 125 170 -12 108 -56 0
311 312 313 314 315 0
-316 -16 0
-316 -38 0
-316 -58 0
-316 160 0
-316 54 0
316 16 38 58 -160 -54 0
-317 8 0
-317 -156 0
-317 94 0
-317 182 0
-317 -5 0
317 -8 156 -94 -182 5 0
-318 134 0
-318 167 0
-318 -151 0
-318 -169 0
-318 150 0
318 -134 -167 151 169 -150 0
-319 162 0
-319 145 0
-319 138 0
-319 -179 0
-319 -96 0
319 -162 -145 -138 179 96 0
-320 -154 0
-320 171 0
-320 119 0
-320 187 0
-320 -157 0
320 154 -171 -119 -187 157 0
316 317 318 319 320 0
-321 175 0
-321 -189 0
-321 5 0
-321 -37 0
-321 -93 0
321 -175 189 -5 37 93 0
-322 72 0
-322 -78 0
-322 164 0
-322 -75 0
-322 8 0
322 -72 78 -164 75 -8 0
-323 -87 0
-323 74 0
-323 99 0
-323 185 0
-323 17 0
323 87 -74 -99 -185 -17 0
-324 -144 0
-324 177 0
-324 -37 0
-324 56 0
-324 33 0
324 144 -177 37 -56 -33 0
-325 -4 0
-325 58 0
-325 -119 0
-325 -186 0
-325 188 0
325 4 -58 119 186 -188 0
321 322 323 324 325 0
-326 178 0
-326 -181 0
-326 182 0
-326 121 0
-326 -88 0
326 -178 181 -182 -121 88 0
-327 112 0
-327 140 0
-327 -43 0
-327 99 0
-327 17 0
327 -112 -140 43 -99 -17 0
-328 -126 0
-328 -45 0
-328 155 0
-328 -8 0
-328 76 0
328 126 45 -155 8 -76 0
-329 -148 0
-329 -140 0
-329 -175 0
-329 120 0
-329 -121 0
329 148 140 175 -120 121 0
-330 16 0
-330 128 0
-330 -29 0
-330 36 0
-330 -41 0
330 -16 -128 29 -36 41 0
326 327 328 329 330 0
-331 -165 0
-331 -100 0
-331 149 0
-331 -35 0
-331 -103 0
331 165 100 -149 35 103 0
-332 -147 0
-332 -33 0
-332 -32 0
-332 -108 0
-332 -92 0
332 147 33 32 108 92 0
-333 105 0
-333 -109 0
-333 -115 0
-333 -58 0
-333 49 0
333 -105 109 115 58 -49 0
-334 176 0
-334 28 0
-334 -150 0
-334 51 0
-334 -120 0
334 -176 -28 150 -51 120 0
-335 -163 0
-335 -108 0
-335 -16 0
-335 -177 0
-335 -38 0
335 163 108 16 177 38 0
331 332 333 334 335 0
-336 -155 0
-336 93 0
-336 101 0
-336 126 0
-336 -3 0
336 155 -93 -101 -126 3 0
-337 43 0
-337 -12 0
-337 -169 0
-337 8 0
-337 120 0
337 -43 12 169 -8 -120 0
-338 29 0
-338 66 0
-338 94 0
-338 175 0
-338 108 0
338 -29 -66 -94 -175 -108 0
-339 -86 0
-339 160 0
-339 122 0
-339 -169 0
-339 28 0
339 86 -160 -122 169 -28 0
-340 -31 0
-340 131 0
-340 -179 0
-340 57 0
-340 -6 0
340 31 -131 179 -57 6 0
336 337 338 339 340 0
-341 125 0
-341 -132 0
-341 -38 0
-341 -161 0
-341 -54 0
341 -125 132 38 161 54 0
-342 111 0
-342 -15 0
-342 -145 0
-342 -57 0
-342 -123 0
342 -111 15 145 57 123 0
-343 -65 0
-343 -92 0
-343 32 0
-343 34 0
-343 170 0
343 65 92 -32 -34 -170 0
-344 43 0
-344 27 0
-344 -29 0
-344 93 0
-344 -71 0
344 -43 -27 29 -93 71 0
-345 183 0
-345 -61 0
-345 78 0
-345 -46 0
-345 52 0
345 -183 61 -78 46 -52 0
341 342 343 344 345 0
-346 -177 0
-346 172 0
-346 -126 0
-346 -131 0
-346 29 0
346 177 -172 126 131 -29 0
-347 -87 0
-347 -156 0
-347 21 0
-347 -63 0
-347 116 0
347 87 156 -21 63 -116 0
-348 -151 0
-348 108 0
-348 -11 0
-348 127 0
-348 41 0
348 151 -108 11 -127 -41 0
-349 45 0
-349 -93 0
-349 14 0
-349 143 0
-349 23 0
349 -45 93 -14 -143 -23 0
-350 -115 0
-350 -105 0
-350 -150 0
-350 -174 0
-350 59 0
350 115 105 150 174 -59 0
346 347 348 349 350 0
-351 -166 0
-351 -52 0
-351 81 0
-351 -35 0
-351 -125 0
351 166 52 -81 35 125 0
-352 124 0
-352 92 0
-352 113 0
-352 158 0
-352 138 0
352 -124 -92 -113 -158 -138 0
-353 11 0
-353 159 0
-353 -82 0
-353 184 0
-353 -41 0
353 -11 -159 82 -184 41 0
-354 -173 0
-354 2 0
-354 -110 0
-354 131 0
-354 -47 0
354 173 -2 110 -131 47 0
-355 -101 0
-355 -109 0
-355 -154 0
-355 14 0
-355 75 0
355 101 109 154 -14 -75 0
351 352 353 354 355 0
-356 45 0
-356 19 0
-356 -20 0
-356 100 0
-356 53 0
356 -45 -19 20 -100 -53 0
-357 -54 0
-357 -171 0
-357 -138 0
-357 -178 0
-357 -132 0
357 54 171 138 178 132 0
-358 -16 0
-358 -104 0
-358 26 0
-358 -128 0
-358 57 0
358 16 104 -26 128 -57 0
-359 -94 0
-359 188 0
-359 -31 0
-359 8 0
-359 -86 0
359 94 -188 31 -8 86 0
-360 -69 0
-360 21 0
-360 81 0
-360 51 0
-360 -176 0
360 69 -21 -81 -51 176 0
356 357 358 359 360 0
-361 48 0
-361 -82 0
-361 -24 0
-361 -123 0
-361 -84 0
361 -48 82 24 123 84 0
-362 116 0
-362 176 0
-362 -58 0
-362 -34 0
-362 -136 0
362 -116 -176 58 34 136 0
-363 108 0
-363 -89 0
-363 -122 0
-363 90 0
-363 -158 0
363 -108 89 122 -90 158 0
-364 61 0
-364 117 0
-364 94 0
-364 -5 0
-364 -105 0
364 -61 -117 -94 5 105 0
-365 16 0
-365 -135 0
-365 -91 0
-365 125 0
-365 -160 0
365 -16 135 91 -125 160 0
361 362 363 364 365 0
-366 -14 0
-366 -30 0
-366 40 0
-366 -20 0
-366 -139 0
366 14 30 -40 20 139 0
-367 174 0
-367 55 0
-367 -123 0
-367 -189 0
-367 -100 0
367 -174 -55 123 189 100 0
-368 152 0
-368 -32 0
-368 7 0
-368 9 0
-368 -5 0
368 -152 32 -7 -9 5 0
-369 85 0
-369 152 0
-369 -28 0
-369 64 0
-369 79 0
369 -85 -152 28 -64 -79 0
-370 27 0
-370 -68 0
-370 120 0
-370 62 0
-370 13 0
370 -27 68 -120 -62 -13 0
366 367 368 369 370 0
-371 -157 0
-371 -137 0
-371 140 0
-371 -175 0
-371 147 0
371 157 137 -140 175 -147 0
-372 -29 0
-372 -4 0
-372 -74 0
-372 -51 0
-372 110 0
372 29 4 74 51 -110 0
-373 57 0
-373 131 0
-373 144 0
-373 188 0
-373 -69 0
373 -57 -131 -144 -188 69 0
-374 65 0
-374 20 0
-374 -128 0
-374 130 0
-374 4 0
374 -65 -20 128 -130 -4 0
-375 110 0
-375 -115 0
-375 163 0
-375 143 0
-375 16 0
375 -110 115 -163 -143 -16 0
371 372 373 374 375 0
-376 -146 0
-376 -185 0
-376 -92 0
-376 -23 0
-376 -179 0
376 146 185 92 23 179 0
-377 -173 0
-377 84 0
-377 60 0
-377 95 0
-377 -1 0
377 173 -84 -60 -95 1 0
-378 -12 0
-378 -179 0
-378 -18 0
-378 -123 0
-378 -6 0
378 12 179 18 123 6 0
-379 139 0
-379 -165 0
-379 -6 0
-379 9 0
-379 -156 0
379 -139 165 6 -9 156 0
-380 -72 0
-380 78 0
-380 -184 0
-380 158 0
-380 -7 0
380 72 -78 184 -158 7 0
376 377 378 379 380 0
-381 129 0
-381 147 0
-381 145 0
-381 142 0
-381 -111 0
381 -129 -147 -145 -142 111 0
-382 55 0
-382 75 0
-382 190 0
-382 -103 0
-382 2 0
382 -55 -75 -190 103 -2 0
-383 -31 0
-383 66 0
-383 65 0
-383 -85 0
-383 -84 0
383 31 -66 -65 85 84 0
-384 171 0
-384 -5 0
-384 142 0
-384 110 0
-384 -81 0
384 -171 5 -142 -110 81 0
-385 -14 0
-385 -153 0
-385 -160 0
-385 -66 0
-385 -77 0
385 14 153 160 66 77 0
381 382 383 384 385 0
-386 86 0
-386 62 0
-386 -150 0
-386 125 0
-386 -142 0
386 -86 -62 150 -125 142 0
-387 -169 0
-387 -39 0
-387 22 0
-387 21 0
-387 -46 0
387 169 39 -22 -21 46 0
-388 -55 0
-388 158 0
-388 -84 0
-388 -73 0
-388 -38 0
388 55 -158 84 73 38 0
-389 -63 0
-389 -175 0
-389 105 0
-389 -40 0
-389 -141 0
389 63 175 -105 40 141 0
-390 101 0
-390 184 0
-390 43 0
-390 -5 0
-390 26 0
390 -101 -184 -43 5 -26 0
386 387 388 389 390 0
-391 -9 0
-391 16 0
-391 33 0
-391 17 0
-391 26 0
391 9 -16 -33 -17 -26 0
-392 9 0
-392 27 0
-392 35 0
-392 -52 0
-392 -114 0
392 -9 -27 -35 52 114 0
-393 -67 0
-393 136 0
-393 141 0
-393 144 0
-393 180 0
393 67 -136 -141 -144 -180 0
-394 -20 0
-394 98 0
-394 146 0
-394 -145 0
-394 -166 0
394 20 -98 -146 145 166 0
-395 -70 0
-395 4 0
-395 -19 0
-395 -173 0
-395 96 0
395 70 -4 19 173 -96 0
391 392 393 394 395 0
-396 -175 0
-396 52 0
-396 -148 0
-396 84 0
-396 -3 0
396 175 -52 148 -84 3 0
-397 7 0
-397 67 0
-397 -164 0
-397 130 0
-397 117 0
397 -7 -67 164 -130 -117 0
-398 20 0
-398 -174 0
-398 29 0
-398 85 0
-398 179 0
398 -20 174 -29 -85 -179 0
-399 -103 0
-399 133 0
-399 56 0
-399 97 0
-399 -166 0
399 103 -133 -56 -97 166 0
-400 -23 0
-400 58 0
-400 -74 0
-400 -166 0
-400 -155 0
400 23 -58 74 166 155 0
396 397 398 399 400 0
-401 79 0
-401 112 0
-401 187 0
-401 66 0
-401 -5 0
401 -79 -112 -187 -66 5 0
-402 -190 0
-402 -85 0
-402 -103 0
-402 -75 0
-402 111 0
402 190 85 103 75 -111 0
-403 3 0
-403 -111 0
-403 -123 0
-403 -128 0
-403 180 0
403 -3 111 123 128 -180 0
-404 -41 0
-404 -112 0
-404 -68 0
-404 93 0
-404 54 0
404 41 112 68 -93 -54 0
-405 -154 0
-405 116 0
-405 -24 0
-405 -112 0
-405 2 0
405 154 -116 24 112 -2 0
401 402 403 404 405 0
-406 -51 0
-406 -73 0
-406 -37 0
-406 -27 0
-406 -3 0
406 51 73 37 27 3 0
-407 139 0
-407 -156 0
-407 -74 0
-407 -140 0
-407 48 0
407 -139 156 74 140 -48 0
-408 181 0
-408 -178 0
-408 143 0
-408 -82 0
-408 12 0
408 -181 178 -143 82 -12 0
-409 -26 0
-409 42 0
-409 -148 0
-409 -2 0
-409 149 0
409 26 -42 148 2 -149 0
-410 137 0
-410 127 0
-410 -10 0
-410 157 0
-410 -12 0
410 -137 -127 10 -157 12 0
406 407 408 409 410 0
-411 -36 0
-411 -174 0
-411 92 0
-411 45 0
-411 55 0
411 36 174 -92 -45 -55 0
-412 -163 0
-412 -159 0
-412 -113 0
-412 -25 0
-412 -111 0
412 163 159 113 25 111 0
-413 49 0
-413 -181 0
-413 -185 0
-413 34 0
-413 -115 0
413 -49 181 185 -34 115 0
-414 -70 0
-414 20 0
-414 -175 0
-414 117 0
-414 -124 0
414 70 -20 175 -117 124 0
-415 1 0
-415 -190 0
-415 54 0
-415 171 0
-415 -132 0
415 -1 190 -54 -171 132 0
411 412 413 414 415 0
-416 131 0
-416 -186 0
-416 -15 0
-416 -58 0
-416 33 0
416 -131 186 15 58 -33 0
-417 152 0
-417 -15 0
-417 35 0
-417 115 0
-417 1 0
417 -152 15 -35 -115 -1 0
-418 -177 0
-418 157 0
-418 -102 0
-418 -34 0
-418 -41 0
418 177 -157 102 34 41 0
-419 170 0
-419 64 0
-419 57 0
-419 86 0
-419 190 0
419 -170 -64 -57 -86 -190 0
-420 -31 0
-420 -35 0
-420 144 0
-420 -140 0
-420 24 0
420 31 35 -144 140 -24 0
416 417 418 419 420 0
-421 -108 0
-421 -62 0
-421 177 0
-421 -31 0
-421 89 0
421 108 62 -177 31 -89 0
-422 -87 0
-422 142 0
-422 -163 0
-422 -58 0
-422 7 0
422 87 -142 163 58 -7 0
-423 104 0
-423 101 0
-423 54 0
-423 -187 0
-423 -175 0
423 -104 -101 -54 187 175 0
-424 -55 0
-424 118 0
-424 38 0
-424 -69 0
-424 140 0
424 55 -118 -38 69 -140 0
-425 -185 0
-425 189 0
-425 66 0
-425 -161 0
-425 -110 0
425 185 -189 -66 161 110 0
421 422 423 424 425 0
-426 19 0
-426 76 0
-426 -180 0
-426 7 0
-426 -128 0
426 -19 -76 180 -7 128 0
-427 -186 0
-427 185 0
-427 165 0
-427 51 0
-427 78 0
427 186 -185 -165 -51 -78 0
-428 -91 0
-428 151 0
-428 46 0
-428 -62 0
-428 -179 0
428 91 -151 -46 62 179 0
-429 170 0
-429 -110 0
-429 48 0
-429 -141 0
-429 182 0
429 -170 110 -48 141 -182 0
-430 120 0
-430 69 0
-430 3 0
-430 -19 0
-430 -181 0
430 -120 -69 -3 19 181 0
426 427 428 429 430 0
